TYPE : Vertex Cover
DIMENSION: 23
EDGE_DATA_SECTION:
0 7
0 8
0 10
0 17
1 2
2 20
3 11
3 16
3 17
3 21
4 7
4 15
4 16
4 18
4 19
5 14
5 16
5 20
6 12
6 19
7 21
9 13
9 17
9 20
9 22
10 17
10 20
10 21
11 21
12 13
13 20
15 17
15 20
16 21
18 21
19 20
20 21
-1
VERTEX_DEGREE:
4.0 1.0 2.0 4.0 5.0 3.0 2.0 3.0 1.0 4.0 4.0 2.0 2.0 3.0 1.0 3.0 4.0 5.0 2.0 3.0 8.0 7.0 1.0
VERTEX_COVER:
0 2 3 4 5 6 9 12 17 20 21
EOF
